NAME: ACTUAL_TOURS/amz2311
TYPE: TOUR
COMMENT: RouteID_f4b633ca-a038-429c-8ee2-dc8c400c1d36
DIMENSION: 189
TOUR_SECTION
59
96
64
35
1
175
159
176
47
123
56
170
181
149
104
138
9
114
80
105
143
76
67
40
144
62
160
129
152
21
154
32
188
95
116
18
108
37
92
172
7
22
89
122
31
165
52
185
20
93
177
83
141
150
63
164
19
186
41
87
3
153
182
132
126
27
158
134
99
14
51
36
90
78
117
11
103
135
112
49
106
72
120
42
38
124
55
187
98
53
162
60
45
2
148
178
48
26
156
54
5
119
111
50
69
169
167
16
128
85
33
39
77
161
82
174
12
100
79
84
130
28
46
107
88
101
58
136
29
140
147
139
157
6
23
166
109
91
17
8
171
97
65
183
71
10
168
70
180
118
25
94
13
102
115
43
179
131
133
184
86
24
44
15
163
75
110
4
155
189
173
146
81
57
73
151
145
30
113
34
74
137
121
68
125
142
61
127
66
-1
EOF
